<?xml version = "1.0" standalone="yes"?>
<!-- This file has been generated by DOcplex version 2.23.222  -->
<CPLEXSolution version="1.0">
 <header
   problemName="CVRP"
   objectiveValue="16664.1"
  />
 <variables>
  <variable name="x_0_2" index="1" value="1.00000"/>
  <variable name="x_0_3" index="2" value="1.00000"/>
  <variable name="x_0_4" index="3" value="1.00000"/>
  <variable name="x_0_5" index="4" value="1.00000"/>
  <variable name="x_0_8" index="7" value="1.00000"/>
  <variable name="x_0_9" index="8" value="1.00000"/>
  <variable name="x_0_11" index="10" value="1.00000"/>
  <variable name="x_0_15" index="14" value="1.00000"/>
  <variable name="x_0_16" index="15" value="1.00000"/>
  <variable name="x_0_20" index="19" value="1.00000"/>
  <variable name="x_0_23" index="22" value="1.00000"/>
  <variable name="x_0_24" index="23" value="1.00000"/>
  <variable name="x_0_26" index="25" value="1.00000"/>
  <variable name="x_1_10" index="36" value="1.00000"/>
  <variable name="x_2_27" index="80" value="1.00000"/>
  <variable name="x_3_0" index="81" value="1.00000"/>
  <variable name="x_4_22" index="129" value="1.00000"/>
  <variable name="x_5_25" index="159" value="1.00000"/>
  <variable name="x_6_18" index="179" value="1.00000"/>
  <variable name="x_7_0" index="189" value="1.00000"/>
  <variable name="x_8_14" index="229" value="1.00000"/>
  <variable name="x_9_6" index="249" value="1.00000"/>
  <variable name="x_10_0" index="270" value="1.00000"/>
  <variable name="x_11_1" index="298" value="1.00000"/>
  <variable name="x_12_0" index="324" value="1.00000"/>
  <variable name="x_13_17" index="367" value="1.00000"/>
  <variable name="x_14_0" index="378" value="1.00000"/>
  <variable name="x_15_13" index="418" value="1.00000"/>
  <variable name="x_16_0" index="432" value="1.00000"/>
  <variable name="x_17_0" index="459" value="1.00000"/>
  <variable name="x_18_0" index="486" value="1.00000"/>
  <variable name="x_19_12" index="525" value="1.00000"/>
  <variable name="x_20_0" index="540" value="1.00000"/>
  <variable name="x_21_0" index="567" value="1.00000"/>
  <variable name="x_22_0" index="594" value="1.00000"/>
  <variable name="x_23_7" index="628" value="1.00000"/>
  <variable name="x_24_0" index="648" value="1.00000"/>
  <variable name="x_25_0" index="675" value="1.00000"/>
  <variable name="x_26_21" index="723" value="1.00000"/>
  <variable name="x_27_19" index="748" value="1.00000"/>
  <variable name="u_1" index="756" value="52.00000"/>
  <variable name="u_2" index="757" value="22.00000"/>
  <variable name="u_3" index="758" value="57.00000"/>
  <variable name="u_4" index="759" value="42.00000"/>
  <variable name="u_5" index="760" value="44.00000"/>
  <variable name="u_6" index="761" value="45.00000"/>
  <variable name="u_7" index="762" value="48.00000"/>
  <variable name="u_8" index="763" value="24.00000"/>
  <variable name="u_9" index="764" value="25.00000"/>
  <variable name="u_10" index="765" value="57.00000"/>
  <variable name="u_11" index="766" value="11.00000"/>
  <variable name="u_12" index="767" value="55.00000"/>
  <variable name="u_13" index="768" value="37.00000"/>
  <variable name="u_14" index="769" value="57.00000"/>
  <variable name="u_15" index="770" value="25.00000"/>
  <variable name="u_16" index="771" value="51.00000"/>
  <variable name="u_17" index="772" value="50.00000"/>
  <variable name="u_18" index="773" value="57.00000"/>
  <variable name="u_19" index="774" value="49.00000"/>
  <variable name="u_20" index="775" value="48.00000"/>
  <variable name="u_21" index="776" value="54.00000"/>
  <variable name="u_22" index="777" value="57.00000"/>
  <variable name="u_23" index="778" value="12.00000"/>
  <variable name="u_24" index="779" value="48.00000"/>
  <variable name="u_25" index="780" value="57.00000"/>
  <variable name="u_26" index="781" value="15.00000"/>
  <variable name="u_27" index="782" value="42.00000"/>
 </variables>
</CPLEXSolution>
